<number of tasks>
250

<cycle time>
1000

<order strength>
0.198


<task times>
1 90
2 124
3 130
4 199
5 262
6 69
7 122
8 55
9 205
10 98
11 195
12 23
13 98
14 152
15 167
16 146
17 68
18 55
19 107
20 152
21 171
22 119
23 170
24 201
25 136
26 269
27 352
28 179
29 138
30 67
31 112
32 259
33 171
34 86
35 51
36 22
37 265
38 83
39 109
40 221
41 105
42 50
43 209
44 142
45 256
46 23
47 111
48 86
49 87
50 134
51 37
52 157
53 250
54 191
55 229
56 150
57 58
58 70
59 51
60 63
61 42
62 239
63 172
64 143
65 171
66 249
67 73
68 218
69 136
70 199
71 95
72 62
73 212
74 65
75 62
76 210
77 105
78 148
79 36
80 80
81 126
82 165
83 228
84 179
85 84
86 109
87 274
88 164
89 62
90 175
91 228
92 82
93 101
94 62
95 215
96 262
97 165
98 35
99 82
100 33
101 75
102 104
103 141
104 126
105 174
106 33
107 183
108 73
109 216
110 163
111 50
112 98
113 194
114 213
115 155
116 126
117 200
118 220
119 238
120 66
121 126
122 234
123 174
124 94
125 158
126 117
127 70
128 162
129 70
130 92
131 28
132 265
133 98
134 139
135 138
136 93
137 107
138 133
139 26
140 222
141 129
142 75
143 27
144 51
145 87
146 219
147 134
148 87
149 173
150 192
151 27
152 78
153 106
154 84
155 137
156 311
157 224
158 54
159 157
160 212
161 305
162 59
163 42
164 195
165 34
166 146
167 151
168 26
169 100
170 182
171 112
172 96
173 131
174 40
175 35
176 257
177 186
178 52
179 213
180 114
181 192
182 79
183 194
184 251
185 28
186 155
187 58
188 50
189 97
190 173
191 35
192 173
193 127
194 129
195 23
196 82
197 157
198 61
199 24
200 129
201 168
202 121
203 106
204 172
205 108
206 39
207 50
208 41
209 210
210 242
211 55
212 96
213 300
214 59
215 333
216 76
217 187
218 302
219 118
220 324
221 232
222 188
223 165
224 84
225 91
226 288
227 50
228 147
229 254
230 194
231 162
232 145
233 25
234 117
235 21
236 162
237 187
238 57
239 67
240 192
241 247
242 93
243 71
244 71
245 60
246 148
247 72
248 107
249 244
250 49

<precedence relations>
1,221
2,16
3,16
4,16
5,16
6,16
7,16
8,69
9,69
10,69
11,69
12,69
13,17
13,20
13,22
13,23
13,24
13,28
14,18
14,21
14,25
14,26
14,101
15,19
15,27
15,142
16,30
16,31
16,32
16,33
16,34
16,35
16,36
16,37
16,38
16,39
16,40
16,41
16,44
17,69
18,69
19,69
20,69
21,69
22,42
23,43
24,29
24,45
25,46
26,48
27,47
29,68
30,52
30,60
31,55
31,65
33,50
34,80
35,102
35,129
35,138
36,54
36,56
36,58
36,122
37,51
37,57
37,67
38,53
39,102
40,169
42,59
43,64
44,61
45,62
46,49
46,63
47,66
49,68
50,68
51,68
52,69
53,69
54,69
55,69
56,69
57,69
58,172
59,70
60,72
61,73
62,74
63,75
64,76
65,71
65,80
66,77
66,79
66,81
67,78
68,82
68,83
68,84
68,85
68,86
68,87
68,88
68,99
69,89
69,90
69,91
69,92
69,93
69,112
70,97
71,94
72,96
73,95
74,98
75,88
82,104
85,123
88,221
94,101
95,100
96,101
97,102
98,156
99,103
100,107
101,105
101,106
101,110
101,113
102,109
102,111
103,108
103,112
104,114
105,221
106,118
107,115
108,119
108,122
109,116
109,120
110,117
110,121
111,123
113,202
115,221
116,172
117,172
118,124
119,125
120,126
121,128
121,129
123,127
124,133
125,130
126,130
127,134
128,131
128,132
128,135
128,137
129,136
130,221
131,182
132,172
133,138
134,140
134,145
135,141
135,142
136,139
136,146
136,147
137,143
137,144
137,223
138,221
139,182
140,150
141,151
142,148
142,152
142,154
143,153
143,156
144,149
144,157
147,155
148,221
149,182
150,167
151,158
152,163
153,164
154,165
155,160
155,161
155,162
155,169
156,168
157,159
157,166
158,221
159,172
160,174
161,175
162,176
163,177
164,178
165,179
166,171
166,173
166,181
167,170
167,180
170,221
171,182
172,183
172,184
172,185
172,186
172,187
172,188
172,189
172,190
172,191
172,192
172,193
172,194
172,195
173,196
174,197
175,199
176,198
177,200
178,200
179,200
180,201
182,203
182,204
182,205
182,206
182,207
182,208
182,209
182,210
182,211
182,212
182,213
182,214
188,219
193,220
196,217
197,218
198,202
199,216
200,215
202,221
205,224
215,222
216,223
221,225
221,226
221,227
221,228
221,229
221,230
221,231
221,232
221,233
221,234
221,235
221,236
221,237
221,238
221,239
222,241
223,240
225,245
238,244
240,242
241,243
242,247
243,246
244,248
245,249
245,250

<end>
